
Gurobi 7.5.2 (win64, Python) logging started 02/02/18 13:35:33

Academic license - for non-commercial use only

Gurobi 7.5.2 (win64, Python) logging started 02/20/18 15:49:44

Academic license - for non-commercial use only

Gurobi 7.5.2 (win64, Python) logging started 02/20/18 18:23:26

Academic license - for non-commercial use only

Gurobi 7.5.2 (win64, Python) logging started 02/21/18 12:13:02

Academic license - for non-commercial use only

Gurobi 7.5.2 (win64, Python) logging started 02/22/18 09:49:54

Academic license - for non-commercial use only

Gurobi 7.5.2 (win64, Python) logging started 02/26/18 10:43:12

Academic license - for non-commercial use only

Gurobi 7.5.2 (win64, Python) logging started 02/28/18 18:50:06

Academic license - for non-commercial use only

Gurobi 7.5.2 (win64, Python) logging started 03/07/18 10:52:04

Academic license - for non-commercial use only

Gurobi 7.5.2 (win64, Python) logging started 03/09/18 17:54:37


Gurobi 7.5.2 (win64, Python) logging started 03/12/18 13:15:08


Gurobi 7.5.2 (win64, Python) logging started 03/12/18 13:50:55

Academic license - for non-commercial use only

Gurobi 7.5.2 (win32, Python) logging started 03/19/18 02:26:30


Gurobi 7.5.2 (win32, Python) logging started 03/19/18 02:30:00

Academic license - for non-commercial use only

Gurobi 7.5.2 (win32, Python) logging started 03/19/18 02:31:43

Academic license - for non-commercial use only

Gurobi 7.5.2 (win32, Python) logging started 03/19/18 02:31:51

Academic license - for non-commercial use only

Gurobi 7.5.2 (win32, Python) logging started 03/19/18 02:36:04

Academic license - for non-commercial use only

Gurobi 7.5.2 (win32, Python) logging started 03/19/18 02:36:31

Academic license - for non-commercial use only

Gurobi 7.5.2 (win32, Python) logging started 03/19/18 02:36:53

Academic license - for non-commercial use only

Gurobi 7.5.2 (win32, Python) logging started 03/21/18 01:09:26

Academic license - for non-commercial use only

Gurobi 7.5.2 (win32, Python) logging started 03/21/18 01:28:17

Academic license - for non-commercial use only

Gurobi 7.5.2 (win32, Python) logging started 03/21/18 01:28:57

Academic license - for non-commercial use only

Gurobi 7.5.2 (win32, Python) logging started 03/21/18 01:30:30

Academic license - for non-commercial use only

Gurobi 7.5.2 (win32, Python) logging started 03/21/18 01:31:08

Academic license - for non-commercial use only

Gurobi 7.5.2 (win32, Python) logging started 03/21/18 01:37:19

Academic license - for non-commercial use only

Gurobi 7.5.2 (win32, Python) logging started 03/21/18 01:37:30

Academic license - for non-commercial use only

Gurobi 7.5.2 (win32, Python) logging started 03/21/18 01:38:40

Academic license - for non-commercial use only

Gurobi 7.5.2 (win32, Python) logging started 03/21/18 01:38:51

Academic license - for non-commercial use only

Gurobi 7.5.2 (win32, Python) logging started 03/21/18 01:38:59

Academic license - for non-commercial use only

Gurobi 7.5.2 (win32, Python) logging started 03/21/18 01:39:12

Academic license - for non-commercial use only

Gurobi 7.5.2 (win32, Python) logging started 03/21/18 01:40:51

Academic license - for non-commercial use only

Gurobi 7.5.2 (win32, Python) logging started 03/21/18 01:41:14

Academic license - for non-commercial use only

Gurobi 7.5.2 (win32, Python) logging started 03/21/18 01:41:42

Academic license - for non-commercial use only

Gurobi 7.5.2 (win32, Python) logging started 03/21/18 01:42:06

Academic license - for non-commercial use only

Gurobi 7.5.2 (win32, Python) logging started 03/21/18 01:42:09

Academic license - for non-commercial use only

Gurobi 7.5.2 (win32, Python) logging started 03/21/18 01:42:31

Academic license - for non-commercial use only

Gurobi 7.5.2 (win32, Python) logging started 03/21/18 01:42:35

Academic license - for non-commercial use only

Gurobi 7.5.2 (win32, Python) logging started 03/21/18 01:42:37

Academic license - for non-commercial use only

Gurobi 7.5.2 (win32, Python) logging started 03/21/18 01:42:37

Academic license - for non-commercial use only

Gurobi 7.5.2 (win32, Python) logging started 03/21/18 01:43:17

Academic license - for non-commercial use only

Gurobi 7.5.2 (win32, Python) logging started 03/21/18 01:43:39

Academic license - for non-commercial use only

Gurobi 7.5.2 (win32, Python) logging started 03/21/18 01:43:46

Academic license - for non-commercial use only

Gurobi 7.5.2 (win32, Python) logging started 03/21/18 01:47:36

Academic license - for non-commercial use only

Gurobi 7.5.2 (win32, Python) logging started 03/21/18 01:47:49

Academic license - for non-commercial use only

Gurobi 7.5.2 (win32, Python) logging started 03/21/18 01:48:50

Academic license - for non-commercial use only

Gurobi 7.5.2 (win32, Python) logging started 03/21/18 01:51:39

Academic license - for non-commercial use only

Gurobi 7.5.2 (win32, Python) logging started 03/21/18 01:51:56

Academic license - for non-commercial use only

Gurobi 7.5.2 (win32, Python) logging started 03/21/18 01:57:34

Academic license - for non-commercial use only

Gurobi 7.5.2 (win32, Python) logging started 03/21/18 01:57:46

Academic license - for non-commercial use only

Gurobi 7.5.2 (win32, Python) logging started 03/21/18 01:58:04

Academic license - for non-commercial use only

Gurobi 7.5.2 (win32, Python) logging started 03/21/18 01:58:18

Academic license - for non-commercial use only

Gurobi 7.5.2 (win32, Python) logging started 03/21/18 01:58:29

Academic license - for non-commercial use only

Gurobi 7.5.2 (win32, Python) logging started 03/21/18 01:58:48

Academic license - for non-commercial use only

Gurobi 7.5.2 (win32, Python) logging started 03/21/18 01:59:01

Academic license - for non-commercial use only

Gurobi 7.5.2 (win32, Python) logging started 03/21/18 01:59:12

Academic license - for non-commercial use only

Gurobi 7.5.2 (win32, Python) logging started 03/21/18 02:00:19

Academic license - for non-commercial use only

Gurobi 7.5.2 (win32, Python) logging started 03/21/18 02:01:43

Academic license - for non-commercial use only

Gurobi 7.5.2 (win32, Python) logging started 03/21/18 02:01:50

Academic license - for non-commercial use only

Gurobi 7.5.2 (win32, Python) logging started 03/21/18 02:20:06

Academic license - for non-commercial use only

Gurobi 7.5.2 (win32, Python) logging started 03/21/18 02:21:08

Academic license - for non-commercial use only

Gurobi 7.5.2 (win32, Python) logging started 03/21/18 02:26:00

Academic license - for non-commercial use only

Gurobi 7.5.2 (win32, Python) logging started 03/21/18 02:44:41

Academic license - for non-commercial use only

Gurobi 7.5.2 (win32, Python) logging started 03/21/18 02:44:52

Academic license - for non-commercial use only

Gurobi 7.5.2 (win32, Python) logging started 03/21/18 02:45:14

Academic license - for non-commercial use only

Gurobi 7.5.2 (win32, Python) logging started 03/21/18 02:45:38

Academic license - for non-commercial use only

Gurobi 7.5.2 (win32, Python) logging started 03/21/18 02:48:08

Academic license - for non-commercial use only

Gurobi 7.5.2 (win32, Python) logging started 03/21/18 02:48:13

Academic license - for non-commercial use only

Gurobi 7.5.2 (win32, Python) logging started 03/21/18 02:48:19

Academic license - for non-commercial use only

Gurobi 7.5.2 (win32, Python) logging started 03/21/18 02:49:30

Academic license - for non-commercial use only

Gurobi 7.5.2 (win32, Python) logging started 03/21/18 02:50:20

Academic license - for non-commercial use only

Gurobi 7.5.2 (win32, Python) logging started 03/21/18 02:51:11

Academic license - for non-commercial use only

Gurobi 7.5.2 (win32, Python) logging started 03/21/18 02:51:32

Academic license - for non-commercial use only

Gurobi 7.5.2 (win32, Python) logging started 03/21/18 02:52:40

Academic license - for non-commercial use only

Gurobi 7.5.2 (win32, Python) logging started 03/21/18 02:53:23

Academic license - for non-commercial use only

Gurobi 7.5.2 (win32, Python) logging started 03/21/18 02:53:35

Academic license - for non-commercial use only

Gurobi 7.5.2 (win32, Python) logging started 03/21/18 02:53:56

Academic license - for non-commercial use only

Gurobi 7.5.2 (win32, Python) logging started 03/21/18 02:55:18

Academic license - for non-commercial use only

Gurobi 7.5.2 (win32, Python) logging started 03/21/18 02:57:29

Academic license - for non-commercial use only

Gurobi 7.5.2 (win32, Python) logging started 03/21/18 02:58:15

Academic license - for non-commercial use only

Gurobi 7.5.2 (win32, Python) logging started 03/21/18 03:01:06

Academic license - for non-commercial use only

Gurobi 7.5.2 (win32, Python) logging started 03/21/18 03:02:32

Academic license - for non-commercial use only

<<<<<<< HEAD
Gurobi 7.5.2 (win32, Python) logging started 04/12/18 19:04:08

Academic license - for non-commercial use only

Gurobi 7.5.2 (win32, Python) logging started 04/12/18 19:04:09

Academic license - for non-commercial use only

Gurobi 7.5.2 (win32, Python) logging started 04/12/18 21:06:32

Academic license - for non-commercial use only

Gurobi 7.5.2 (win32, Python) logging started 04/12/18 21:13:05

Academic license - for non-commercial use only

Gurobi 7.5.2 (win32, Python) logging started 04/12/18 21:13:28

Academic license - for non-commercial use only

Gurobi 7.5.2 (win32, Python) logging started 04/12/18 21:44:24

Academic license - for non-commercial use only

Gurobi 7.5.2 (win32, Python) logging started 04/12/18 21:48:30

Academic license - for non-commercial use only

Gurobi 7.5.2 (win32, Python) logging started 04/12/18 21:49:35

Academic license - for non-commercial use only

Gurobi 7.5.2 (win32, Python) logging started 04/12/18 21:49:48

Academic license - for non-commercial use only

Gurobi 7.5.2 (win32, Python) logging started 04/13/18 03:19:33

Academic license - for non-commercial use only
Academic license - for non-commercial use only

Gurobi 7.5.2 (win32, Python) logging started 04/13/18 03:19:58

Academic license - for non-commercial use only

Gurobi 7.5.2 (win32, Python) logging started 04/13/18 03:20:33

Academic license - for non-commercial use only

Gurobi 7.5.2 (win32, Python) logging started 04/13/18 03:22:02

Academic license - for non-commercial use only

Gurobi 7.5.2 (win32, Python) logging started 04/13/18 03:22:40

Academic license - for non-commercial use only

Gurobi 7.5.2 (win32, Python) logging started 04/13/18 12:43:45

Academic license - for non-commercial use only

Gurobi 7.5.2 (win32, Python) logging started 04/13/18 13:33:40

Academic license - for non-commercial use only

Gurobi 7.5.2 (win32, Python) logging started 04/13/18 13:36:01

Academic license - for non-commercial use only

Gurobi 7.5.2 (win32, Python) logging started 04/13/18 13:37:19

Academic license - for non-commercial use only

Gurobi 7.5.2 (win32, Python) logging started 04/13/18 13:38:12

Academic license - for non-commercial use only

Gurobi 7.5.2 (win32, Python) logging started 04/13/18 13:39:24

Academic license - for non-commercial use only

Gurobi 7.5.2 (win32, Python) logging started 04/13/18 13:41:07

Academic license - for non-commercial use only

Gurobi 7.5.2 (win32, Python) logging started 04/13/18 13:41:20

Academic license - for non-commercial use only

Gurobi 7.5.2 (win32, Python) logging started 04/13/18 13:50:28

Academic license - for non-commercial use only

Gurobi 7.5.2 (win32, Python) logging started 04/13/18 13:50:50

Academic license - for non-commercial use only

Gurobi 7.5.2 (win32, Python) logging started 04/13/18 13:50:57

Academic license - for non-commercial use only

Gurobi 7.5.2 (win32, Python) logging started 04/13/18 13:51:27

Academic license - for non-commercial use only

Gurobi 7.5.2 (win32, Python) logging started 04/13/18 14:01:35

Academic license - for non-commercial use only

Gurobi 7.5.2 (win32, Python) logging started 04/13/18 14:08:18

Academic license - for non-commercial use only

Gurobi 7.5.2 (win32, Python) logging started 04/13/18 14:08:33

Academic license - for non-commercial use only

Gurobi 7.5.2 (win32, Python) logging started 04/13/18 14:08:41

Academic license - for non-commercial use only

Gurobi 7.5.2 (win32, Python) logging started 04/13/18 14:09:28

Academic license - for non-commercial use only

Gurobi 7.5.2 (win32, Python) logging started 04/13/18 14:09:53

Academic license - for non-commercial use only

Gurobi 7.5.2 (win32, Python) logging started 04/13/18 14:10:12

Academic license - for non-commercial use only

Gurobi 7.5.2 (win32, Python) logging started 04/13/18 14:10:31

Academic license - for non-commercial use only

Gurobi 7.5.2 (win32, Python) logging started 04/13/18 14:25:29

Academic license - for non-commercial use only

Gurobi 7.5.2 (win32, Python) logging started 04/13/18 14:25:37

Academic license - for non-commercial use only

Gurobi 7.5.2 (win32, Python) logging started 04/13/18 14:25:55

Academic license - for non-commercial use only

Gurobi 7.5.2 (win32, Python) logging started 04/13/18 14:43:05

Academic license - for non-commercial use only

Gurobi 7.5.2 (win32, Python) logging started 04/13/18 14:46:02

Academic license - for non-commercial use only

Gurobi 7.5.2 (win32, Python) logging started 04/13/18 14:46:13

Academic license - for non-commercial use only

Gurobi 7.5.2 (win32, Python) logging started 04/13/18 14:46:56

Academic license - for non-commercial use only

Gurobi 7.5.2 (win32, Python) logging started 04/13/18 14:47:17
=======
Gurobi 7.5.2 (win32, Python) logging started 03/21/18 11:53:07


Gurobi 7.5.2 (win32, Python) logging started 03/21/18 11:54:36

Academic license - for non-commercial use only

Gurobi 7.5.2 (win32, Python) logging started 03/21/18 14:43:52

Academic license - for non-commercial use only

Gurobi 7.5.2 (win32, Python) logging started 03/21/18 14:44:51

Academic license - for non-commercial use only

Gurobi 7.5.2 (win32, Python) logging started 03/27/18 22:41:16

Academic license - for non-commercial use only

Gurobi 7.5.2 (win32, Python) logging started 03/28/18 06:42:35

Academic license - for non-commercial use only

Gurobi 7.5.2 (win32, Python) logging started 03/28/18 06:44:08

Academic license - for non-commercial use only

Gurobi 7.5.2 (win32, Python) logging started 03/28/18 06:49:18

Academic license - for non-commercial use only

Gurobi 7.5.2 (win32, Python) logging started 03/28/18 06:52:27

Academic license - for non-commercial use only

Gurobi 7.5.2 (win32, Python) logging started 03/28/18 06:52:47

Academic license - for non-commercial use only

Gurobi 7.5.2 (win32, Python) logging started 03/28/18 06:53:12

Academic license - for non-commercial use only

Gurobi 7.5.2 (win32, Python) logging started 03/28/18 07:25:01
>>>>>>> f0fff5f69df9a77728d618dc68320ed8d3d73537

Academic license - for non-commercial use only

Gurobi 7.5.2 (win32, Python) logging started 04/13/18 14:49:38

Academic license - for non-commercial use only

Gurobi 7.5.2 (win32, Python) logging started 04/13/18 14:49:55

Academic license - for non-commercial use only

Gurobi 7.5.2 (win32, Python) logging started 04/13/18 14:50:22

Academic license - for non-commercial use only

Gurobi 7.5.2 (win32, Python) logging started 04/13/18 15:13:23

Academic license - for non-commercial use only

Gurobi 7.5.2 (win32, Python) logging started 04/13/18 15:16:18

Academic license - for non-commercial use only

Gurobi 7.5.2 (win32, Python) logging started 04/21/18 01:11:35

Academic license - for non-commercial use only

Gurobi 7.5.2 (win32, Python) logging started 04/21/18 01:11:56

Academic license - for non-commercial use only

Gurobi 7.5.2 (win32, Python) logging started 04/21/18 01:45:13

Academic license - for non-commercial use only

Gurobi 7.5.2 (win32, Python) logging started 04/21/18 01:48:20

Academic license - for non-commercial use only

Gurobi 7.5.2 (win32, Python) logging started 04/21/18 01:49:21

Academic license - for non-commercial use only

Gurobi 7.5.2 (win32, Python) logging started 04/21/18 01:50:09

Academic license - for non-commercial use only

Gurobi 7.5.2 (win32, Python) logging started 04/21/18 12:14:25

Academic license - for non-commercial use only

Gurobi 7.5.2 (win32, Python) logging started 04/21/18 12:15:14

Academic license - for non-commercial use only

Gurobi 7.5.2 (win32, Python) logging started 04/21/18 12:15:26

Academic license - for non-commercial use only

Gurobi 7.5.2 (win32, Python) logging started 04/21/18 12:17:26

Academic license - for non-commercial use only

Gurobi 7.5.2 (win32, Python) logging started 04/21/18 12:18:16

Academic license - for non-commercial use only

Gurobi 7.5.2 (win32, Python) logging started 04/21/18 12:19:20

Academic license - for non-commercial use only

Gurobi 7.5.2 (win32, Python) logging started 04/21/18 12:20:17

Academic license - for non-commercial use only

Gurobi 7.5.2 (win32, Python) logging started 04/21/18 12:21:30

Academic license - for non-commercial use only

Gurobi 7.5.2 (win32, Python) logging started 04/21/18 12:27:43

Academic license - for non-commercial use only

Gurobi 7.5.2 (win32, Python) logging started 04/21/18 12:30:03

Academic license - for non-commercial use only

Gurobi 7.5.2 (win32, Python) logging started 04/21/18 12:31:46

Academic license - for non-commercial use only

Gurobi 7.5.2 (win32, Python) logging started 04/21/18 12:35:37

Academic license - for non-commercial use only

Gurobi 7.5.2 (win32, Python) logging started 04/21/18 12:37:30

Academic license - for non-commercial use only

Gurobi 7.5.2 (win32, Python) logging started 04/21/18 12:39:38

Academic license - for non-commercial use only

Gurobi 7.5.2 (win32, Python) logging started 04/21/18 13:00:22

Academic license - for non-commercial use only
